1000 0 1 7 0 73 184 102 428 606 245 649 473 149 890 668 537 739 1008
1001 0 1 6 120 185 182 371 87 141 786 83
1002 0 1 65 58 224 72 328 48 365 762 792 805 218 973
1003 0 1 50
1004 1 2 84 54 19 306 107 387
1005 0 1 85 1 164 320 45 246 448 323 158 198 875 250 110 700 532 220
1006 1 3 38 86 81 290 82 210 101 186 81 956 1087
1007 1 2 15 85 32 18 477 188 470 539 504 465 851 764 530 400 333
1008 1 3 45 134 241 119 195
1009 1 2 5 64 11 204 487 176 444 203 585 87 31 983 165 1395 162
1010 0 3 91 40
1011 0 3 71 166 19 300 85
1012 0 3 89 108 196 205 262 75 30 391 12 974 654 78 1067 62 1381 50 561 1550
